(set-logic HORN)
(set-info :source |
  Benchmark: ./benchmarks/ocaml/safety/tacas2015//file.ml
  Generated by Refinement Caml
|)
(set-info :status unknown)
(declare-fun |$P18| (Int Int Int Int) Bool)
(declare-fun |$P2| (Int) Bool)
(declare-fun |$P0| (Int) Bool)
(declare-fun |$P1| (Int Int) Bool)
(declare-fun |$P8| (Int) Bool)
(declare-fun |$P9| (Int Int) Bool)
(declare-fun |$P4| (Int) Bool)
(declare-fun |$P3| (Int Int) Bool)
(declare-fun |$P5| (Int Int) Bool)
(declare-fun |$P6| (Int) Bool)
(declare-fun |$P7| (Int Int) Bool)
(declare-fun |$P16| (Int Int Int) Bool)
(declare-fun |$P10| (Int Int Int) Bool)
(declare-fun |$P14| (Int) Bool)
(declare-fun |$P15| (Int Int) Bool)
(declare-fun |$P11| (Int Int Int) Bool)
(declare-fun |$P12| (Int) Bool)
(declare-fun |$P13| (Int Int) Bool)
(declare-fun |$P19| (Int) Bool)
(declare-fun |$P20| (Int Int) Bool)
(declare-fun |$P25| (Int Int Int) Bool)
(declare-fun |$P17| (Int Int Int Int) Bool)
(declare-fun |$P21| (Int) Bool)
(declare-fun |$P22| (Int) Bool)
(declare-fun |$P23| (Int) Bool)